(set-logic QF_BV)
(declare-fun _substvar_112_ () (_ BitVec 143))
(declare-fun _substvar_96_ () (_ BitVec 143))
(declare-fun _substvar_105_ () (_ BitVec 143))
(declare-fun _substvar_70_ () (_ BitVec 143))
(declare-fun _substvar_163_ () Bool)
(assert (and true true true true true true true true true true true true true true true true true true true true true true true true true true true true (= _substvar_105_ (_ bv0 143)) (ite _substvar_163_ (= _substvar_112_ (_ bv0 143)) (= _substvar_112_ (concat ((_ extract 141 0) _substvar_105_) (_ bv0 1)))) (= _substvar_96_ (concat ((_ extract 141 0) _substvar_112_) (bvxor (bvxor (bvxor ((_ extract 142 142) _substvar_112_) ((_ extract 141 141) _substvar_112_)) (_ bv0 1)) (_ bv0 1)))) (= _substvar_70_ (concat ((_ extract 141 0) _substvar_96_) (_ bv0 1))) true true true (= (= (_ bv0 143) _substvar_70_) false)))
(check-sat)
(exit)
